testfile.lp
Minimize 
     x_0 + x_1 + x_2 + x_3 + x_4 + x_5 + x_6 + x_7 + x_8 + x_9
Subject To 
    ctr_0: y_0_0 + y_0_1 + y_0_2 + y_0_3 + y_0_4 + y_0_5 + y_0_6 + y_0_7 + y_0_8 + y_0_9 + y_1_0 + y_1_1 + y_1_2 + y_1_3 + y_1_4 + y_1_5 + y_1_6 + y_1_7 + y_1_8 + y_1_9 + y_2_0 + y_2_1 + y_2_2 + y_2_3 + y_2_4 + y_2_5 + y_2_6 + y_2_7 + y_2_8 + y_2_9 + y_3_0 + y_3_1 + y_3_2 + y_3_3 + y_3_4 + y_3_5 + y_3_6 + y_3_7 + y_3_8 + y_3_9 + y_4_0 + y_4_1 + y_4_2 + y_4_3 + y_4_4 + y_4_5 + y_4_6 + y_4_7 + y_4_8 + y_4_9 + y_5_0 + y_5_1 + y_5_2 + y_5_3 + y_5_4 + y_5_5 + y_5_6 + y_5_7 + y_5_8 + y_5_9 + y_6_0 + y_6_1 + y_6_2 + y_6_3 + y_6_4 + y_6_5 + y_6_6 + y_6_7 + y_6_8 + y_6_9 + y_7_0 + y_7_1 + y_7_2 + y_7_3 + y_7_4 + y_7_5 + y_7_6 + y_7_7 + y_7_8 + y_7_9 + y_8_0 + y_8_1 + y_8_2 + y_8_3 + y_8_4 + y_8_5 + y_8_6 + y_8_7 + y_8_8 + y_8_9 + y_9_0 + y_9_1 + y_9_2 + y_9_3 + y_9_4 + y_9_5 + y_9_6 + y_9_7 + y_9_8 + y_9_9 = 10
    ctr_1: y_0_0 * 29 + y_0_1 * 29 + y_0_2 * 29 + y_0_3 * 29 + y_0_4 * 29 + y_0_5 * 15 + y_0_6 * 15 + y_0_7 * 15 + y_0_8 * 5 + y_0_9 * 58 <= 100
    ctr_2: y_1_0 * 29 + y_1_1 * 29 + y_1_2 * 29 + y_1_3 * 29 + y_1_4 * 29 + y_1_5 * 15 + y_1_6 * 15 + y_1_7 * 15 + y_1_8 * 5 + y_1_9 * 58 <= 100
    ctr_3: y_2_0 * 29 + y_2_1 * 29 + y_2_2 * 29 + y_2_3 * 29 + y_2_4 * 29 + y_2_5 * 15 + y_2_6 * 15 + y_2_7 * 15 + y_2_8 * 5 + y_2_9 * 58 <= 100
    ctr_4: y_3_0 * 29 + y_3_1 * 29 + y_3_2 * 29 + y_3_3 * 29 + y_3_4 * 29 + y_3_5 * 15 + y_3_6 * 15 + y_3_7 * 15 + y_3_8 * 5 + y_3_9 * 58 <= 100
    ctr_5: y_4_0 * 29 + y_4_1 * 29 + y_4_2 * 29 + y_4_3 * 29 + y_4_4 * 29 + y_4_5 * 15 + y_4_6 * 15 + y_4_7 * 15 + y_4_8 * 5 + y_4_9 * 58 <= 100
    ctr_6: y_5_0 * 29 + y_5_1 * 29 + y_5_2 * 29 + y_5_3 * 29 + y_5_4 * 29 + y_5_5 * 15 + y_5_6 * 15 + y_5_7 * 15 + y_5_8 * 5 + y_5_9 * 58 <= 100
    ctr_7: y_6_0 * 29 + y_6_1 * 29 + y_6_2 * 29 + y_6_3 * 29 + y_6_4 * 29 + y_6_5 * 15 + y_6_6 * 15 + y_6_7 * 15 + y_6_8 * 5 + y_6_9 * 58 <= 100
    ctr_8: y_7_0 * 29 + y_7_1 * 29 + y_7_2 * 29 + y_7_3 * 29 + y_7_4 * 29 + y_7_5 * 15 + y_7_6 * 15 + y_7_7 * 15 + y_7_8 * 5 + y_7_9 * 58 <= 100
    ctr_9: y_8_0 * 29 + y_8_1 * 29 + y_8_2 * 29 + y_8_3 * 29 + y_8_4 * 29 + y_8_5 * 15 + y_8_6 * 15 + y_8_7 * 15 + y_8_8 * 5 + y_8_9 * 58 <= 100
    ctr_10: y_9_0 * 29 + y_9_1 * 29 + y_9_2 * 29 + y_9_3 * 29 + y_9_4 * 29 + y_9_5 * 15 + y_9_6 * 15 + y_9_7 * 15 + y_9_8 * 5 + y_9_9 * 58 <= 100
Binary 
     x_0
     x_1
     x_2
     x_3
     x_4
     x_5
     x_6
     x_7
     x_8
     x_9
     y_0_0
     y_0_1
     y_0_2
     y_0_3
     y_0_4
     y_0_5
     y_0_6
     y_0_7
     y_0_8
     y_0_9
     y_1_0
     y_1_1
     y_1_2
     y_1_3
     y_1_4
     y_1_5
     y_1_6
     y_1_7
     y_1_8
     y_1_9
     y_2_0
     y_2_1
     y_2_2
     y_2_3
     y_2_4
     y_2_5
     y_2_6
     y_2_7
     y_2_8
     y_2_9
     y_3_0
     y_3_1
     y_3_2
     y_3_3
     y_3_4
     y_3_5
     y_3_6
     y_3_7
     y_3_8
     y_3_9
     y_4_0
     y_4_1
     y_4_2
     y_4_3
     y_4_4
     y_4_5
     y_4_6
     y_4_7
     y_4_8
     y_4_9
     y_5_0
     y_5_1
     y_5_2
     y_5_3
     y_5_4
     y_5_5
     y_5_6
     y_5_7
     y_5_8
     y_5_9
     y_6_0
     y_6_1
     y_6_2
     y_6_3
     y_6_4
     y_6_5
     y_6_6
     y_6_7
     y_6_8
     y_6_9
     y_7_0
     y_7_1
     y_7_2
     y_7_3
     y_7_4
     y_7_5
     y_7_6
     y_7_7
     y_7_8
     y_7_9
     y_8_0
     y_8_1
     y_8_2
     y_8_3
     y_8_4
     y_8_5
     y_8_6
     y_8_7
     y_8_8
     y_8_9
     y_9_0
     y_9_1
     y_9_2
     y_9_3
     y_9_4
     y_9_5
     y_9_6
     y_9_7
     y_9_8
     y_9_9
End