testfile
10 4 2
100
29 5 10
15 3 10
5 1 1
58 1 10
0 3 
1 2 

